SystemVerilog/StopWatch/stopwatch1/model/design_smt2.smt2
; SMT-LIBv2 description generated by Yosys 0.9+3981 (git sha1 0e0f8429, gcc 9.3.0-17ubuntu1~20.04 -fPIC -Os)
; yosys-smt2-module stopwatch1
(declare-sort |stopwatch1_s| 0)
(declare-fun |stopwatch1_is| (|stopwatch1_s|) Bool)
(declare-fun |stopwatch1#0| (|stopwatch1_s|) Bool) ; \toggle
; yosys-smt2-input toggle 1
; yosys-smt2-wire toggle 1
(define-fun |stopwatch1_n toggle| ((state |stopwatch1_s|)) Bool (|stopwatch1#0| state))
(declare-fun |stopwatch1#1| (|stopwatch1_s|) (_ BitVec 4)) ; \timer
; yosys-smt2-output timer 4
; yosys-smt2-register timer 4
; yosys-smt2-wire timer 4
(define-fun |stopwatch1_n timer| ((state |stopwatch1_s|)) (_ BitVec 4) (|stopwatch1#1| state))
(declare-fun |stopwatch1#2| (|stopwatch1_s|) Bool) ; \reset
; yosys-smt2-input reset 1
; yosys-smt2-wire reset 1
(define-fun |stopwatch1_n reset| ((state |stopwatch1_s|)) Bool (|stopwatch1#2| state))
(declare-fun |stopwatch1#3| (|stopwatch1_s|) (_ BitVec 1)) ; \on
; yosys-smt2-register on 1
; yosys-smt2-wire on 1
(define-fun |stopwatch1_n on| ((state |stopwatch1_s|)) Bool (= ((_ extract 0 0) (|stopwatch1#3| state)) #b1))
(declare-fun |stopwatch1#4| (|stopwatch1_s|) Bool) ; \clk
; yosys-smt2-input clk 1
; yosys-smt2-wire clk 1
; yosys-smt2-clock clk posedge
(define-fun |stopwatch1_n clk| ((state |stopwatch1_s|)) Bool (|stopwatch1#4| state))
(declare-fun |stopwatch1#5| (|stopwatch1_s|) (_ BitVec 4)) ; $past$stopwatch1.sv:42$2$0
; yosys-smt2-register $past$stopwatch1.sv:42$2$0 4
(define-fun |stopwatch1_n $past$stopwatch1.sv:42$2$0| ((state |stopwatch1_s|)) (_ BitVec 4) (|stopwatch1#5| state))
(declare-fun |stopwatch1#6| (|stopwatch1_s|) (_ BitVec 1)) ; $past$stopwatch1.sv:33$1$0
; yosys-smt2-register $past$stopwatch1.sv:33$1$0 1
(define-fun |stopwatch1_n $past$stopwatch1.sv:33$1$0| ((state |stopwatch1_s|)) Bool (= ((_ extract 0 0) (|stopwatch1#6| state)) #b1))
(define-fun |stopwatch1#7| ((state |stopwatch1_s|)) (_ BitVec 1) (bvxor (|stopwatch1#6| state) (ite (|stopwatch1#0| state) #b1 #b0))) ; $0\on[0:0]
(define-fun |stopwatch1#8| ((state |stopwatch1_s|)) (_ BitVec 4) (ite (|stopwatch1#2| state) #b0000 #b0000)) ; $procmux$16_Y
(define-fun |stopwatch1#9| ((state |stopwatch1_s|)) (_ BitVec 4) (bvadd (|stopwatch1#5| state) #b0001)) ; $add$stopwatch1.sv:42$12_Y
(define-fun |stopwatch1#10| ((state |stopwatch1_s|)) (_ BitVec 1) (bvnot (ite (|stopwatch1#2| state) #b1 #b0))) ; $eq$stopwatch1.sv:46$14_Y
(define-fun |stopwatch1#11| ((state |stopwatch1_s|)) Bool (and (or  (= ((_ extract 0 0) (|stopwatch1#3| state)) #b1) false) (or  (= ((_ extract 0 0) (|stopwatch1#10| state)) #b1) false))) ; $logic_and$stopwatch1.sv:41$11_Y
(define-fun |stopwatch1#12| ((state |stopwatch1_s|)) (_ BitVec 4) (ite (|stopwatch1#11| state) (|stopwatch1#9| state) (|stopwatch1#8| state))) ; $procmux$18_Y
(define-fun |stopwatch1#13| ((state |stopwatch1_s|)) Bool (not (or  (= ((_ extract 0 0) (|stopwatch1#3| state)) #b1) false))) ; $logic_not$stopwatch1.sv:46$13_Y
(define-fun |stopwatch1#14| ((state |stopwatch1_s|)) Bool (and (or  (|stopwatch1#13| state) false) (or  (= ((_ extract 0 0) (|stopwatch1#10| state)) #b1) false))) ; $logic_and$stopwatch1.sv:46$15_Y
(define-fun |stopwatch1#15| ((state |stopwatch1_s|)) (_ BitVec 4) (ite (|stopwatch1#14| state) (|stopwatch1#5| state) (|stopwatch1#12| state))) ; $0\timer[3:0]
(define-fun |stopwatch1#16| ((state |stopwatch1_s|)) Bool (or  (|stopwatch1#2| state) (|stopwatch1#11| state) (|stopwatch1#14| state))) ; $auto$opt_dff.cc:217:make_patterns_logic$28
(define-fun |stopwatch1#17| ((state |stopwatch1_s|)) (_ BitVec 4) (ite (|stopwatch1#16| state) (|stopwatch1#15| state) (|stopwatch1#1| state))) ; $auto$rtlil.cc:2218:Mux$32
(define-fun |stopwatch1_a| ((state |stopwatch1_s|)) Bool true)
(define-fun |stopwatch1_u| ((state |stopwatch1_s|)) Bool true)
(define-fun |stopwatch1_i| ((state |stopwatch1_s|)) Bool true)
(define-fun |stopwatch1_h| ((state |stopwatch1_s|)) Bool true)
(define-fun |stopwatch1_t| ((state |stopwatch1_s|) (next_state |stopwatch1_s|)) Bool (and
  (= (|stopwatch1#3| state) (|stopwatch1#6| next_state)) ; $procdff$24 $past$stopwatch1.sv:33$1$0
  (= (|stopwatch1#1| state) (|stopwatch1#5| next_state)) ; $procdff$25 $past$stopwatch1.sv:42$2$0
  (= (|stopwatch1#7| state) (|stopwatch1#3| next_state)) ; $procdff$23 \on
  (= (|stopwatch1#17| state) (|stopwatch1#1| next_state)) ; $auto$opt_dff.cc:764:run$30 \timer
)) ; end of module stopwatch1
; yosys-smt2-topmod stopwatch1
; end of yosys output
